20
99.0
0 19 37.94 26.81
1 18 31.79 25.15
2 17 33.85 22.14
3 16 48.5 28.84
4 15 33.27 27.77
5 14 35.65 38.62
6 13 44.18 31.19
7 12 27.88 34.38
8 11 44.8 28.49
9 10 39.85 31.8
10 9 47.39 30.34
11 8 22.53 19.19
12 7 32.49 30.03
13 6 45.9 35.67
14 5 47.04 18.11
15 4 15.05 23.52
16 3 45.28 40.43
17 2 47.87 9.4
18 1 1.36 23.24
